Route #1: 864 314 346 944 753 754 808 500 959 872 420 
Route #2: 234 206 706 248 501 763 5 760 714 
Route #3: 929 272 660 386 695 261 686 453 607 344 859 
Route #4: 927 273 316 588 514 883 74 85 291 
Route #5: 477 727 275 384 214 757 
Route #6: 556 481 352 216 81 329 567 603 181 338 178 
Route #7: 983 771 542 792 393 87 402 389 11 
Route #8: 518 545 315 105 931 537 201 973 826 224 67 
Route #9: 93 370 225 240 327 862 368 
Route #10: 581 311 855 679 17 734 745 
Route #11: 451 437 838 464 647 161 868 374 65 610 427 590 
Route #12: 407 244 126 349 484 976 967 911 744 735 
Route #13: 176 793 230 779 871 991 252 101 659 59 149 
Route #14: 817 77 613 449 414 803 86 302 
Cost: 246278
